(set-logic QF_S)
(declare-fun var0 () String)
(assert (str.in.re var0 (re.++ (re.* (re.+ (str.to.re "0"))) (re.++ (re.+ (re.* (str.to.re "1"))) (re.++ (re.union (re.+ (str.to.re "222")) (re.+ (str.to.re "33"))) (re.++ (re.+ (re.union (str.to.re "4") (str.to.re "55"))) (re.++ (re.union (re.* (str.to.re "6")) (re.* (str.to.re "777"))) (re.++ (re.+ (re.union (str.to.re "888") (str.to.re "99"))) (re.++ (re.union (re.* (str.to.re "aa")) (re.* (str.to.re "b"))) (re.++ (re.+ (re.* (str.to.re "cc"))) (re.++ (re.union (re.* (str.to.re "dd")) (re.* (str.to.re "e"))) (re.* (re.union (str.to.re "ff") (str.to.re "g"))))))))))))))
(assert (<= 51 (str.len var0)))
(check-sat)